c ---- [ banner ] ------------------------------------------------------------
c
c Kissat SAT Solver
c 
c Copyright (c) 2021-2023 Armin Biere University of Freiburg
c Copyright (c) 2019-2021 Armin Biere Johannes Kepler University Linz
c 
c Version 3.1.1 unknown
c gcc (Ubuntu 9.4.0-1ubuntu1~20.04.2) 9.4.0 -W -Wall -O3 -DNDEBUG
c Mon Feb 26 18:18:52 CET 2024 Linux OptiPlex-7080 5.15.0-88-generic x86_64
c
c ---- [ parsing ] -----------------------------------------------------------
c
c opened and reading DIMACS file:
c
c   tseitin-29.cnf
c
c parsed 'p cnf 58 232' header
c closing input after reading 3845 bytes (4 KB)
c finished parsing after 0.00 seconds
c
c ---- [ solving ] -----------------------------------------------------------
c
c  seconds switched conflicts irredundant variables
c         MB reductions redundant   trail  remaining
c          level restarts   binary     glue
c
c *  0.00  3 0 0 0  0   0   0   0 232 0% 0 58 98%
c {  0.00  4 0 0 0  0   0   0   0 232 0% 0 58 98%
c -  0.00  4 25 0 1  7 1002 197   0 232 86% 10 58 98%
c }  0.00  4 25 1 1  7 1002 197   0 232 86% 10 58 98%
c [  0.00  4 0 1 1  7 1002 197   0 232 0% 0 58 98%
c B  0.00  4 0 1 1  7 1002 197   0 232 0% 0 58 98%
c ]  0.00  4 22 2 1  7 1755 598   0 232 72% 11 58 98%
c {  0.00  4 25 2 1  7 1755 598   0 232 86% 10 58 98%
c -  0.01  4 23 2 2  7 2002 316   0 232 79% 10 58 98%
c v  0.01  4 23 2 2 28 2320 486   0 232 78% 10 58 98%
c }  0.01  4 23 3 2 32 2755 699   0 232 77% 10 58 98%
c [  0.01  4 22 3 2 32 2755 699   0 232 72% 11 58 98%
c W  0.01  4 22 3 2 32 2755 699   0 232 72% 11 58 98%
c ^  0.01  4 23 3 2 32 2841 758   0 232 72% 11 58 98%
c -  0.01  4 22 3 3 32 3419 466   0 232 65% 11 58 98%
c ]  0.01  4 21 4 3 32 4032 783   0 232 61% 11 58 98%
c {  0.01  4 23 4 3 32 4032 783   0 232 77% 10 58 98%
c v  0.01  4 23 4 3 32 4155 850   0 232 75% 10 58 98%
c -  0.01  4 22 4 4 54 5152 676   0 232 73% 10 58 98%
c ^  0.02  4 22 4 4 54 5684 941   0 232 70% 10 58 98%
c
c  seconds  switched conflicts   irredundant variables
c         MB reductions  redundant      trail   remaining
c          level restarts      binary       glue
c
c }  0.02  4 21 5 4 60 6385 1289   0 232 68% 10 58 98%
c [  0.02  4 21 5 4 60 6385 1289   0 232 61% 11 58 98%
c I  0.02  4 21 5 4 60 6385 1289   0 232 61% 11 58 98%
c v  0.02  4 20 5 4 60 6684 1434   0 232 61% 10 58 98%
c -  0.02  4 20 5 5 60 7153 903   0 232 60% 10 58 98%
c ]  0.02  4 19 6 5 61 8547 1644   0 232 57% 10 58 98%
c {  0.02  4 21 6 5 61 8547 1644   0 232 68% 10 58 98%
c -  0.03  4 21 6 6 284 9394 1081   0 232 65% 10 58 98%
c v  0.03  4 20 6 6 284 9940 1347   0 232 63% 10 58 98%
c -  0.04  4 19 6 7 532 11843 1196   0 232 60% 10 58 98%
c ^  0.04  4 19 6 7 532 11843 1196   0 232 60% 10 58 98%
c }  0.04  4 19 7 7 579 12617 1795   0 232 57% 10 58 98%
c [  0.04  4 19 7 7 579 12617 1795   0 232 57% 10 58 98%
c B  0.04  4 19 7 7 579 12617 1795   0 232 57% 10 58 98%
c v  0.04  4 18 7 7 579 13948 2466   0 232 54% 10 58 98%
c -  0.05  4 18 7 8 579 14488 1288   0 232 53% 10 58 98%
c -  0.05  4 17 7 9 581 17319 1365   0 232 50% 10 58 98%
c W  0.05  4 17 7 9 581 18149 1795   0 232 49% 10 58 98%
c v  0.06  4 17 7 9 581 18735 2125   0 232 49% 10 58 98%
c -  0.06  4 16 7 10 582 20319 1449   0 232 48% 10 58 98%
c
c  seconds  switched   conflicts    irredundant variables
c         MB  reductions    redundant      trail   remaining
c          level  restarts        binary       glue
c
c ^  0.06  4 16 7 10 582 21764 2257   0 232 48% 10 58 98%
c -  0.07  4 16 7 11 583 23481 1557   0 232 47% 10 58 98%
c ]  0.07  4 16 8 11 583 23837 1732   0 232 47% 10 58 98%
c {  0.07  4 19 8 11 583 23837 1732   0 232 57% 10 58 98%
c -  0.08  4 18 8 12 998 26798 1818   0 232 55% 10 58 98%
c }  0.08  4 17 9 12 998 29996 3431   0 232 54% 10 58 98%
c [  0.08  4 16 9 12 998 29996 3431   0 232 47% 10 58 98%
c O  0.08  4 16 9 12 998 29996 3431   0 232 47% 10 58 98%
c -  0.08  4 16 9 13 998 30264 2011   0 232 47% 10 58 98%
c -  0.10  4 16 9 14 1000 33871 2019   0 232 46% 10 58 98%
c ^  0.10  4 15 9 14 1000 35863 3320   0 232 45% 10 58 98%
c ]  0.10  4 16 10 14 1000 36216 3501   0 232 45% 10 58 98%
c {  0.10  4 17 10 14 1000 36216 3501   0 232 54% 10 58 98%
c -  0.10  4 17 10 15 1273 37612 2101   0 232 53% 10 58 98%
c v  0.11  4 17 10 15 1382 38007 2298   0 232 53% 10 58 98%
c -  0.12  4 17 10 16 2205 41484 2117   0 232 50% 10 58 98%
c }  0.13  5 16 11 16 2205 44844 5213   0 232 48% 10 58 98%
c [  0.13  5 16 11 16 2205 44844 5213   0 232 45% 10 58 98%
c B  0.13  5 16 11 16 2205 44844 5213   0 232 45% 10 58 98%
c -  0.13  5 15 11 17 2205 45484 2486   0 232 45% 10 58 98%
c
c  seconds   switched    conflicts    irredundant variables
c         MB   reductions     redundant      trail   remaining
c          level    restarts        binary       glue
c
c v  0.14  5 15 11 17 2205 46138 2904   0 232 45% 10 58 98%
c -  0.15  5 15 11 18 2207 49608 2874   0 232 44% 10 58 98%
c -  0.16  5 15 11 19 2209 53851 3080   0 232 43% 10 58 98%
c e  0.16  5 15 11 19 2210 54524 3494   0 440 43% 10 45 76%
c !  0.16  5 15 11 19 2210 54524 3494   0 440 43% 10 45 76%
c ]  0.16  5 15 12 19 2210 55051 2016   0 440 43% 10 45 76%
c {  0.16  5 16 12 19 2210 55051 2016   0 440 48% 10 45 76%
c u  0.16  5 16 12 19 2210 55150 2071   0 440 48% 10 45 76%
c v  0.16  5 16 12 19 2210 55150 2071   0 440 48% 10 45 76%
c -  0.17  5 16 12 20 2217 58209 1669   0 440 49% 10 45 76%
c -  0.18  5 16 12 21 2217 62681 1738   0 440 51% 10 45 76%
c }  0.18  5 16 13 21 2217 66531 3553   0 440 52% 10 45 76%
c [  0.18  5 15 13 21 2217 66531 3553   0 440 43% 10 45 76%
c W  0.18  5 15 13 21 2217 66531 3553   0 440 43% 10 45 76%
c -  0.18  5 15 13 22 2217 67265 1977   0 440 43% 10 45 76%
c v  0.19  5 15 13 22 2217 67433 2054   0 440 43% 10 45 76%
c -  0.20  5 15 13 23 2219 71956 2539   0 440 44% 9 45 76%
c ]  0.20  5 15 14 23 2219 73551 3467   0 440 45% 9 45 76%
c {  0.20  5 16 14 23 2219 73551 3467   0 440 52% 10 45 76%
c -  0.21  5 16 14 24 3113 76752 2568   0 440 52% 10 45 76%
c
c  seconds   switched    conflicts    irredundant variables
c         MB   reductions     redundant      trail   remaining
c          level    restarts        binary       glue
c
c u  0.23  5 16 14 24 3775 80852 4589   0 440 52% 10 45 76%
c v  0.23  5 16 14 24 3775 80852 4589   0 440 52% 10 45 76%
c -  0.24  5 16 14 25 3979 81650 2497   0 440 52% 10 45 76%
c -  0.25  5 16 14 26 3981 86650 2986   0 440 52% 10 45 76%
c }  0.26  5 15 15 26 4015 88266 4412   0 440 52% 10 45 76%
c [  0.26  5 15 15 26 4015 88266 4412   0 440 45% 9 45 76%
c I  0.26  5 15 15 26 4015 88266 4412   0 440 45% 9 45 76%
c -  0.26  5 15 15 27 4016 91749 3085   0 440 45% 9 45 76%
c v  0.28  5 15 15 27 4018 95424 5966   0 440 46% 9 45 76%
c -  0.29  5 14 15 28 4019 96945 3449   0 440 46% 10 45 76%
c -  0.30  5 14 15 29 4021 102237 3459   0 440 46% 9 45 76%
c ]  0.31  5 14 16 29 4021 104776 5605   0 440 46% 9 45 76%
c {  0.31  5 15 16 29 4021 104776 5605   0 440 52% 10 45 76%
c -  0.32  5 15 16 30 4550 107623 3789   0 440 51% 10 45 76%
c u  0.33  5 15 16 30 5292 111166 5840   0 440 51% 10 45 76%
c v  0.34  5 15 16 30 5292 111166 5840   0 440 51% 10 45 76%
c -  0.35  5 15 16 31 5800 113100 3333   0 440 51% 10 45 76%
c -  0.37  5 15 16 32 6025 118667 3762   0 440 51% 10 45 76%
c }  0.38  5 14 17 32 6025 123114 8199   0 440 50% 10 45 76%
c [  0.38  5 14 17 32 6025 123114 8199   0 440 46% 9 45 76%
c
c  seconds   switched    conflicts     irredundant variables
c         MB   reductions      redundant      trail  remaining
c          level    restarts         binary      glue
c
c B  0.38  5 14 17 32 6025 123114 8199   0 440 46% 9 45 76%
c -  0.38  5 14 17 33 6026 124323 4122   0 440 46% 9 45 76%
c u  0.40  5 14 17 33 6028 128096 7504   0 440 46% 9 45 76%
c v  0.40  5 14 17 33 6028 128096 7504   0 440 46% 9 45 76%
c -  0.41  5 14 17 34 6030 130067 4175   0 440 46% 9 45 76%
c -  0.44  5 13 17 35 6031 135898 4006   0 440 46% 9 45 76%
c ]  0.44  5 13 18 35 6032 136308 4416   0 440 46% 9 45 76%
c {  0.44  5 14 18 35 6032 136308 4416   0 440 50% 10 45 76%
c -  0.46  5 14 18 36 6032 141815 4785   0 440 50% 10 45 76%
c u  0.49  5 14 18 36 6032 146231 9177   0 440 50% 9 45 76%
c v  0.49  5 14 18 36 6032 146231 9177   0 440 50% 9 45 76%
c -  0.51  5 14 18 37 6122 147815 5719   0 440 50% 9 45 76%
c -  0.53  5 13 18 38 6202 153897 5712   0 440 50% 9 45 76%
c }  0.56  5 13 19 38 6449 158653 9997   0 440 49% 9 45 76%
c [  0.56  5 13 19 38 6449 158653 9997   0 440 46% 9 45 76%
c W  0.56  5 13 19 38 6449 158653 9997   0 440 46% 9 45 76%
c -  0.57  6 13 19 39 6450 160062 5284   0 440 46% 9 45 76%
c u  0.60  5 13 19 39 6454 165583 10768   0 440 46% 9 45 76%
c v  0.60  5 13 19 39 6454 165583 10768   0 440 46% 9 45 76%
c -  0.61  6 13 19 40 6454 166307 5183   0 440 46% 9 45 76%
c
c  seconds   switched    conflicts     irredundant variables
c         MB   reductions      redundant      trail  remaining
c          level    restarts         binary      glue
c
c -  0.64  5 12 19 41 6457 172632 5310   0 440 45% 9 45 76%
c -  0.67  5 12 19 42 6461 179037 6401   0 440 46% 9 45 76%
c O  0.69  5 12 19 42 6462 182880 10105   0 440 46% 9 45 76%
c ]  0.69  5 12 20 42 6462 183195 10420   0 440 46% 9 45 76%
c {  0.69  5 13 20 42 6462 183195 10420   0 440 49% 9 45 76%
c -  0.70  6 13 20 43 6462 185517 6388   0 440 50% 9 45 76%
c u  0.71  6 13 20 43 6462 186167 7038   0 440 50% 9 45 76%
c v  0.72  6 13 20 43 6462 186167 7038   0 440 50% 9 45 76%
c -  0.75  6 13 20 44 7012 192075 6207   0 440 49% 9 45 76%
c -  0.78  6 13 20 45 7012 198708 6559   0 440 49% 9 45 76%
c s  0.80  5 12 20 45 7012 203331 11051   1 432 49% 9 45 76%
c -  0.81  6 12 20 46 7019 205418 7746   1 432 49% 9 45 76%
c u  0.83  6 12 20 46 7019 207997 10093  24 432 49% 9 45 76%
c v  0.83  6 12 20 46 7019 207997 9884 233 432 49% 9 45 76%
c t  0.83  6 12 20 46 7019 207997 9884   1 432 49% 9 45 76%
c }  0.84  6 12 21 46 7055 209934 11585   1 432 50% 9 45 76%
c [  0.84  6 12 21 46 7055 209934 11585   1 432 46% 9 45 76%
c B  0.85  6 12 21 46 7055 210620 12131   1 432 46% 9 45 76%
c -  0.86  6 12 21 47 7056 212201 8120   1 432 46% 9 45 76%
c -  0.90  6 12 21 48 7061 219056 7895   1 432 46% 9 45 76%
c
c  seconds   switched    conflicts     irredundant variables
c         MB   reductions      redundant      trail  remaining
c          level    restarts         binary      glue
c
c -  0.93  5 11 21 49 7064 225984 9690   3 432 46% 8 45 76%
c u  0.96  6 11 21 49 7067 230968 14422 241 432 46% 8 45 76%
c v  0.97  6 11 21 49 7067 230968 13948 715 432 46% 8 45 76%
c w  0.97  6 11 21 49 7067 230968 13948 731 416 46% 8 45 76%
c t  0.98  6 11 21 49 7067 230968 13948   7 416 46% 8 45 76%
c ]  0.98  6 11 22 49 7068 231378 14357   8 416 46% 8 45 76%
c {  0.98  6 12 22 49 7068 231378 14357   8 416 50% 9 45 76%
c i  0.98  6 12 22 49 7068 231790 14757  15 416 50% 9 44 75%
c -  0.99  6 12 22 50 7068 232985 7117   7 416 50% 9 44 75%
c i  0.99  6 12 22 50 7068 233685 7807  16 416 49% 9 42 71%
c i  0.99  6 12 22 50 7068 234137 8226  26 416 49% 9 41 69%
c i  0.99  6 12 22 50 7068 234141 8226  29 416 49% 9 40 68%
c i  0.99  6 12 22 50 7068 234166 8245  34 416 49% 9 32 54%
c i  0.99  6 12 22 50 7068 234208 8255  36 416 49% 9 28 47%
c i  0.99  6 12 22 50 7068 234220 8256  38 416 49% 9 27 46%
c i  0.99  6 12 22 50 7068 234225 8256  40 416 49% 9 26 44%
c i  0.99  6 12 22 50 7068 234228 8255  41 416 49% 9 25 42%
c }  0.99  6 12 22 50 7068 234230 8255  41 416 49% 9 21 36%
c 0  0.99  6 12 22 50 7068 234230 8255  41 416 49% 9 21 36%
c
c ---- [ result ] ------------------------------------------------------------
c
s UNSATISFIABLE
c
c ---- [ profiling ] ---------------------------------------------------------
c
c           0.85   85.90 %  search
c           0.45   45.49 %  focused
c           0.40   40.41 %  stable
c           0.14   14.04 %  simplify
c           0.13   13.43 %  probe
c           0.12   11.93 %  vivify
c           0.02    2.23 %  reduce
c           0.01    1.01 %  substitute
c           0.00    0.34 %  walking
c           0.00    0.34 %  sweep
c           0.00    0.27 %  eliminate
c           0.00    0.14 %  transitive
c           0.00    0.05 %  parse
c           0.00    0.03 %  subsume
c           0.00    0.01 %  backbone
c           0.00    0.00 %  warmup
c =============================================
c           0.99  100.00 %  total
c
c ---- [ statistics ] --------------------------------------------------------
c
c conflicts:                           234230           235682.04 per second
c decisions:                           369355                1.58 per conflict
c eliminated:                              13               22 %  variables
c jumped_reasons:                           2                0 %  propagations
c propagations:                       1113759          1120663    per second
c queue_decisions:                     231616               63 %  decision
c random_decisions:                      6547                2 %  decision
c random_sequences:                        56             4183    interval
c reductions:                              50             4685    interval
c rephased:                                13            18018    interval
c restarts:                              7068               33.14 interval
c score_decisions:                     131192               36 %  decision
c strengthened:                            16                0 %  checks
c subsumed:                                 8                0 %  checks
c switched:                                22            10647    interval
c vivified:                              4907               12 %  checks
c vivify_checks:                        42583             1851    per vivify
c vivify_units:                             0                0 %  variables
c walk_improved:                            4              100 %  walks
c walks:                                    4            58558    interval
c
c ---- [ resources ] ---------------------------------------------------------
c
c maximum-resident-set-size:          6254592 bytes          6 MB
c process-time:                             1s               0.99 seconds
c
c ---- [ shutting down ] -----------------------------------------------------
c
c exit 20
